! Wannier input created with qe2wann

!one_dim_axis = 2
!dist_cutoff_mode = three_dim
bands_plot_mode = cut
one_dim_axis = z
bands_plot_dim = 2
dist_cutoff = 10
hr_cutoff = 0.015

! restart = default


dis_froz_min = -4.0367
dis_froz_max = 7.9633





begin unit_cell_cart
bohr
    5.22213316  3.01500000   0.00000000
    5.22213316  -3.01500000   0.00000000
    0.00000000  0.00000000   20.27000000
end unit_cell_cart



begin atoms_frac
S  0.40500068  0.40500068  0.05636540
S  0.40500068  0.40500068  0.34363460
Mo  0.07170123  0.07170123  0.20000000
end atoms_frac


hr_plot = .true.  ! calculate hamiltonian

bands_plot = .true.  ! plot bands

guiding_centres = .true.  ! use guiding centres

write_r2mn = .true.  ! use guiding centres

write_xyz = .true.  ! write positions

translate_home_cell = .true.  ! write positions


! wannier_plot = .true.  ! plot wannier

wannier_plot_supercell = 2  ! how many cells write

begin kpoint_path
K  0.0  0.0  0.0  K  1.0  -1.0  0.0
end kpoint_path


bands_num_points = 100  ! number of kpoints

num_wann    =    11
num_iter    =    100


num_bands = 52  ! bands from qe_nsxf_wann.in

begin projections
S:px
S:py
S:pz
Mo:dxy
Mo:dxz
Mo:dyz
Mo:dx2-y2
Mo:dz2
end projections

mp_grid : 20  20  1

begin kpoints
  0.0   0.0   0.0
  0.0   0.05   0.0
  0.0   0.1   0.0
  0.0   0.15   0.0
  0.0   0.2   0.0
  0.0   0.25   0.0
  0.0   0.3   0.0
  0.0   0.35   0.0
  0.0   0.4   0.0
  0.0   0.45   0.0
  0.0   0.5   0.0
  0.0   0.55   0.0
  0.0   0.6   0.0
  0.0   0.65   0.0
  0.0   0.7   0.0
  0.0   0.75   0.0
  0.0   0.8   0.0
  0.0   0.85   0.0
  0.0   0.9   0.0
  0.0   0.95   0.0
  0.05   0.0   0.0
  0.05   0.05   0.0
  0.05   0.1   0.0
  0.05   0.15   0.0
  0.05   0.2   0.0
  0.05   0.25   0.0
  0.05   0.3   0.0
  0.05   0.35   0.0
  0.05   0.4   0.0
  0.05   0.45   0.0
  0.05   0.5   0.0
  0.05   0.55   0.0
  0.05   0.6   0.0
  0.05   0.65   0.0
  0.05   0.7   0.0
  0.05   0.75   0.0
  0.05   0.8   0.0
  0.05   0.85   0.0
  0.05   0.9   0.0
  0.05   0.95   0.0
  0.1   0.0   0.0
  0.1   0.05   0.0
  0.1   0.1   0.0
  0.1   0.15   0.0
  0.1   0.2   0.0
  0.1   0.25   0.0
  0.1   0.3   0.0
  0.1   0.35   0.0
  0.1   0.4   0.0
  0.1   0.45   0.0
  0.1   0.5   0.0
  0.1   0.55   0.0
  0.1   0.6   0.0
  0.1   0.65   0.0
  0.1   0.7   0.0
  0.1   0.75   0.0
  0.1   0.8   0.0
  0.1   0.85   0.0
  0.1   0.9   0.0
  0.1   0.95   0.0
  0.15   0.0   0.0
  0.15   0.05   0.0
  0.15   0.1   0.0
  0.15   0.15   0.0
  0.15   0.2   0.0
  0.15   0.25   0.0
  0.15   0.3   0.0
  0.15   0.35   0.0
  0.15   0.4   0.0
  0.15   0.45   0.0
  0.15   0.5   0.0
  0.15   0.55   0.0
  0.15   0.6   0.0
  0.15   0.65   0.0
  0.15   0.7   0.0
  0.15   0.75   0.0
  0.15   0.8   0.0
  0.15   0.85   0.0
  0.15   0.9   0.0
  0.15   0.95   0.0
  0.2   0.0   0.0
  0.2   0.05   0.0
  0.2   0.1   0.0
  0.2   0.15   0.0
  0.2   0.2   0.0
  0.2   0.25   0.0
  0.2   0.3   0.0
  0.2   0.35   0.0
  0.2   0.4   0.0
  0.2   0.45   0.0
  0.2   0.5   0.0
  0.2   0.55   0.0
  0.2   0.6   0.0
  0.2   0.65   0.0
  0.2   0.7   0.0
  0.2   0.75   0.0
  0.2   0.8   0.0
  0.2   0.85   0.0
  0.2   0.9   0.0
  0.2   0.95   0.0
  0.25   0.0   0.0
  0.25   0.05   0.0
  0.25   0.1   0.0
  0.25   0.15   0.0
  0.25   0.2   0.0
  0.25   0.25   0.0
  0.25   0.3   0.0
  0.25   0.35   0.0
  0.25   0.4   0.0
  0.25   0.45   0.0
  0.25   0.5   0.0
  0.25   0.55   0.0
  0.25   0.6   0.0
  0.25   0.65   0.0
  0.25   0.7   0.0
  0.25   0.75   0.0
  0.25   0.8   0.0
  0.25   0.85   0.0
  0.25   0.9   0.0
  0.25   0.95   0.0
  0.3   0.0   0.0
  0.3   0.05   0.0
  0.3   0.1   0.0
  0.3   0.15   0.0
  0.3   0.2   0.0
  0.3   0.25   0.0
  0.3   0.3   0.0
  0.3   0.35   0.0
  0.3   0.4   0.0
  0.3   0.45   0.0
  0.3   0.5   0.0
  0.3   0.55   0.0
  0.3   0.6   0.0
  0.3   0.65   0.0
  0.3   0.7   0.0
  0.3   0.75   0.0
  0.3   0.8   0.0
  0.3   0.85   0.0
  0.3   0.9   0.0
  0.3   0.95   0.0
  0.35   0.0   0.0
  0.35   0.05   0.0
  0.35   0.1   0.0
  0.35   0.15   0.0
  0.35   0.2   0.0
  0.35   0.25   0.0
  0.35   0.3   0.0
  0.35   0.35   0.0
  0.35   0.4   0.0
  0.35   0.45   0.0
  0.35   0.5   0.0
  0.35   0.55   0.0
  0.35   0.6   0.0
  0.35   0.65   0.0
  0.35   0.7   0.0
  0.35   0.75   0.0
  0.35   0.8   0.0
  0.35   0.85   0.0
  0.35   0.9   0.0
  0.35   0.95   0.0
  0.4   0.0   0.0
  0.4   0.05   0.0
  0.4   0.1   0.0
  0.4   0.15   0.0
  0.4   0.2   0.0
  0.4   0.25   0.0
  0.4   0.3   0.0
  0.4   0.35   0.0
  0.4   0.4   0.0
  0.4   0.45   0.0
  0.4   0.5   0.0
  0.4   0.55   0.0
  0.4   0.6   0.0
  0.4   0.65   0.0
  0.4   0.7   0.0
  0.4   0.75   0.0
  0.4   0.8   0.0
  0.4   0.85   0.0
  0.4   0.9   0.0
  0.4   0.95   0.0
  0.45   0.0   0.0
  0.45   0.05   0.0
  0.45   0.1   0.0
  0.45   0.15   0.0
  0.45   0.2   0.0
  0.45   0.25   0.0
  0.45   0.3   0.0
  0.45   0.35   0.0
  0.45   0.4   0.0
  0.45   0.45   0.0
  0.45   0.5   0.0
  0.45   0.55   0.0
  0.45   0.6   0.0
  0.45   0.65   0.0
  0.45   0.7   0.0
  0.45   0.75   0.0
  0.45   0.8   0.0
  0.45   0.85   0.0
  0.45   0.9   0.0
  0.45   0.95   0.0
  0.5   0.0   0.0
  0.5   0.05   0.0
  0.5   0.1   0.0
  0.5   0.15   0.0
  0.5   0.2   0.0
  0.5   0.25   0.0
  0.5   0.3   0.0
  0.5   0.35   0.0
  0.5   0.4   0.0
  0.5   0.45   0.0
  0.5   0.5   0.0
  0.5   0.55   0.0
  0.5   0.6   0.0
  0.5   0.65   0.0
  0.5   0.7   0.0
  0.5   0.75   0.0
  0.5   0.8   0.0
  0.5   0.85   0.0
  0.5   0.9   0.0
  0.5   0.95   0.0
  0.55   0.0   0.0
  0.55   0.05   0.0
  0.55   0.1   0.0
  0.55   0.15   0.0
  0.55   0.2   0.0
  0.55   0.25   0.0
  0.55   0.3   0.0
  0.55   0.35   0.0
  0.55   0.4   0.0
  0.55   0.45   0.0
  0.55   0.5   0.0
  0.55   0.55   0.0
  0.55   0.6   0.0
  0.55   0.65   0.0
  0.55   0.7   0.0
  0.55   0.75   0.0
  0.55   0.8   0.0
  0.55   0.85   0.0
  0.55   0.9   0.0
  0.55   0.95   0.0
  0.6   0.0   0.0
  0.6   0.05   0.0
  0.6   0.1   0.0
  0.6   0.15   0.0
  0.6   0.2   0.0
  0.6   0.25   0.0
  0.6   0.3   0.0
  0.6   0.35   0.0
  0.6   0.4   0.0
  0.6   0.45   0.0
  0.6   0.5   0.0
  0.6   0.55   0.0
  0.6   0.6   0.0
  0.6   0.65   0.0
  0.6   0.7   0.0
  0.6   0.75   0.0
  0.6   0.8   0.0
  0.6   0.85   0.0
  0.6   0.9   0.0
  0.6   0.95   0.0
  0.65   0.0   0.0
  0.65   0.05   0.0
  0.65   0.1   0.0
  0.65   0.15   0.0
  0.65   0.2   0.0
  0.65   0.25   0.0
  0.65   0.3   0.0
  0.65   0.35   0.0
  0.65   0.4   0.0
  0.65   0.45   0.0
  0.65   0.5   0.0
  0.65   0.55   0.0
  0.65   0.6   0.0
  0.65   0.65   0.0
  0.65   0.7   0.0
  0.65   0.75   0.0
  0.65   0.8   0.0
  0.65   0.85   0.0
  0.65   0.9   0.0
  0.65   0.95   0.0
  0.7   0.0   0.0
  0.7   0.05   0.0
  0.7   0.1   0.0
  0.7   0.15   0.0
  0.7   0.2   0.0
  0.7   0.25   0.0
  0.7   0.3   0.0
  0.7   0.35   0.0
  0.7   0.4   0.0
  0.7   0.45   0.0
  0.7   0.5   0.0
  0.7   0.55   0.0
  0.7   0.6   0.0
  0.7   0.65   0.0
  0.7   0.7   0.0
  0.7   0.75   0.0
  0.7   0.8   0.0
  0.7   0.85   0.0
  0.7   0.9   0.0
  0.7   0.95   0.0
  0.75   0.0   0.0
  0.75   0.05   0.0
  0.75   0.1   0.0
  0.75   0.15   0.0
  0.75   0.2   0.0
  0.75   0.25   0.0
  0.75   0.3   0.0
  0.75   0.35   0.0
  0.75   0.4   0.0
  0.75   0.45   0.0
  0.75   0.5   0.0
  0.75   0.55   0.0
  0.75   0.6   0.0
  0.75   0.65   0.0
  0.75   0.7   0.0
  0.75   0.75   0.0
  0.75   0.8   0.0
  0.75   0.85   0.0
  0.75   0.9   0.0
  0.75   0.95   0.0
  0.8   0.0   0.0
  0.8   0.05   0.0
  0.8   0.1   0.0
  0.8   0.15   0.0
  0.8   0.2   0.0
  0.8   0.25   0.0
  0.8   0.3   0.0
  0.8   0.35   0.0
  0.8   0.4   0.0
  0.8   0.45   0.0
  0.8   0.5   0.0
  0.8   0.55   0.0
  0.8   0.6   0.0
  0.8   0.65   0.0
  0.8   0.7   0.0
  0.8   0.75   0.0
  0.8   0.8   0.0
  0.8   0.85   0.0
  0.8   0.9   0.0
  0.8   0.95   0.0
  0.85   0.0   0.0
  0.85   0.05   0.0
  0.85   0.1   0.0
  0.85   0.15   0.0
  0.85   0.2   0.0
  0.85   0.25   0.0
  0.85   0.3   0.0
  0.85   0.35   0.0
  0.85   0.4   0.0
  0.85   0.45   0.0
  0.85   0.5   0.0
  0.85   0.55   0.0
  0.85   0.6   0.0
  0.85   0.65   0.0
  0.85   0.7   0.0
  0.85   0.75   0.0
  0.85   0.8   0.0
  0.85   0.85   0.0
  0.85   0.9   0.0
  0.85   0.95   0.0
  0.9   0.0   0.0
  0.9   0.05   0.0
  0.9   0.1   0.0
  0.9   0.15   0.0
  0.9   0.2   0.0
  0.9   0.25   0.0
  0.9   0.3   0.0
  0.9   0.35   0.0
  0.9   0.4   0.0
  0.9   0.45   0.0
  0.9   0.5   0.0
  0.9   0.55   0.0
  0.9   0.6   0.0
  0.9   0.65   0.0
  0.9   0.7   0.0
  0.9   0.75   0.0
  0.9   0.8   0.0
  0.9   0.85   0.0
  0.9   0.9   0.0
  0.9   0.95   0.0
  0.95   0.0   0.0
  0.95   0.05   0.0
  0.95   0.1   0.0
  0.95   0.15   0.0
  0.95   0.2   0.0
  0.95   0.25   0.0
  0.95   0.3   0.0
  0.95   0.35   0.0
  0.95   0.4   0.0
  0.95   0.45   0.0
  0.95   0.5   0.0
  0.95   0.55   0.0
  0.95   0.6   0.0
  0.95   0.65   0.0
  0.95   0.7   0.0
  0.95   0.75   0.0
  0.95   0.8   0.0
  0.95   0.85   0.0
  0.95   0.9   0.0
  0.95   0.95   0.0
end kpoints

